181 82 23 178 184 60 151 117 159 158 15 48 136 74 16 41 104 109 25 54 92 192 114 71 43 33 112 162 77 170 14 69 35 182 95 199 174 149 32 91 57 121 49 20 76 188 89 106 190 46 116 123 99 19 8 17 5 10 132 81 180 161 34 52 36 172 28 145 189 150 169 83 140 105 66 90 165 56 80 153 45 3 177 133 31 67 115 129 44 86 9 135 47 30 185 7 4 2 97 21 37 73 111 50 1 168 42 194 87 196 131 160 110 127 166 108 186 120 94 27 93 126 85 187 171 39 0 78 130 197 198 64 164 163 22 137 24 63 102 134 148 107 154 68 38 195 11 51 152 13 144 84 193 100 88 173 138 167 147 156 103 61 75 176 118 175 142 139 157 65 59 62 96 122 146 179 18 141 70 6 183 101 53 58 119 29 55 12 26 40 113 143 128 125 155 191 98 124 72 79 

